(set-option :produce-unsat-cores true) ; enable generation of unsat cores
(set-option :produce-models true) ; enable model generation
(set-logic ALL)
(declare-sort var3472 0)
(declare-sort var289 0)
(declare-sort var982 0)
(declare-sort var752 0)
(declare-sort void 0)
(declare-sort Iterator 0)
(declare-sort ClassObject 0)
(define-fun cast-from-Int-to-Int ((arg Int)) Int arg)
(declare-fun length/1489591041 (var289) Int)
(define-fun equalsIgnoreCase/-92311102 ((this String) (another String)) Bool (let ((upper_this (str.replace_all (str.replace_all (str.replace_all (str.replace_all (str.replace_all (str.replace_all (str.replace_all (str.replace_all (str.replace_all (str.replace_all (str.replace_all (str.replace_all (str.replace_all (str.replace_all (str.replace_all (str.replace_all (str.replace_all (str.replace_all (str.replace_all (str.replace_all (str.replace_all (str.replace_all (str.replace_all (str.replace_all (str.replace_all (str.replace_all this "a" "A") "b" "B") "c" "C") "d" "D") "e" "E") "f" "F") "g" "G") "h" "H") "i" "I") "j" "J") "k" "K") "l" "L") "m" "M") "n" "N") "o" "O") "p" "P") "q" "Q") "r" "R") "s" "S") "t" "T") "u" "U") "v" "V") "w" "W") "x" "X") "y" "Y") "z" "Z")) (upper_another (str.replace_all (str.replace_all (str.replace_all (str.replace_all (str.replace_all (str.replace_all (str.replace_all (str.replace_all (str.replace_all (str.replace_all (str.replace_all (str.replace_all (str.replace_all (str.replace_all (str.replace_all (str.replace_all (str.replace_all (str.replace_all (str.replace_all (str.replace_all (str.replace_all (str.replace_all (str.replace_all (str.replace_all (str.replace_all (str.replace_all another "a" "A") "b" "B") "c" "C") "d" "D") "e" "E") "f" "F") "g" "G") "h" "H") "i" "I") "j" "J") "k" "K") "l" "L") "m" "M") "n" "N") "o" "O") "p" "P") "q" "Q") "r" "R") "s" "S") "t" "T") "u" "U") "v" "V") "w" "W") "x" "X") "y" "Y") "z" "Z"))) (= upper_this upper_another)))
(declare-const null-var3472 var3472)
(declare-const null-Int Int)
(declare-const null-var289 var289)
(declare-const null-String String)
(declare-const var752-TIMESTAMP var752)
(declare-const var2687 var3472) ; Statement: r5 := @parameter0: com.mysql.cj.conf.PropertySet 
(assert (not (= var2687 null-var3472)))
(declare-const var1014 Int) ; Statement: i5 := @parameter1: int 
(assert (not (= var1014 null-Int)))
(declare-const var1529 Int) ; Statement: s0 := @parameter2: short 
(assert (not (= var1529 null-Int)))
(declare-const var2067 Int) ; Statement: l6 := @parameter3: long 
(assert (not (= var2067 null-Int)))
(declare-const var847 var289) ; Statement: r1 := @parameter4: com.mysql.cj.util.LazyString 
(assert (not (= var847 null-var289)))
(declare-const var187 var289) ; Statement: r0 := @parameter5: com.mysql.cj.util.LazyString 
(assert (not (= var187 null-var289)))
(declare-const var3676 Int) ; Statement: i13 := @parameter6: int 
(assert (not (= var3676 null-Int)))
(declare-const var1888 String) ; Statement: r2 := @parameter7: java.lang.String 
(assert (not (= var1888 null-String)))
(define-const var3270 Int (bv2nat (bvand ((_ int2bv 64) var1529) ((_ int2bv 64) 32)))) ; Statement: $s1 = s0 & 32 
(define-const var1838 Int (cast-from-Int-to-Int var3270)) ; Statement: $i16 = (int) $s1 
 ; Statement: if $i16 <= 0 goto $z17 = 0 
(assert (<= var1838 0)) ; Cond: $i16 <= 0 
(define-const var3025 Bool (ite (= 1 0) true false)) ; Statement: $z17 = 0 
(assert true) ; Non Conditional
(define-const var3575 Bool var3025) ; Statement: z0 = $z17 
(assert true)
(define-const var1270 Int (length/1489591041 var187)) ; Statement: $i2 = virtualinvoke r0.<com.mysql.cj.util.LazyString: int length()>() 
 ; Statement: if $i2 != 0 goto $z18 = 0 
(assert (not (= var1270 0))) ; Cond: $i2 != 0 
(define-const var3599 Bool (ite (= 1 0) true false)) ; Statement: $z18 = 0 
(assert true) ; Non Conditional
(define-const var384 Bool var3599) ; Statement: z1 = $z18 
(define-const var891 Int (bv2nat (bvand ((_ int2bv 64) var1529) ((_ int2bv 64) 128)))) ; Statement: $s3 = s0 & 128 
(define-const var2867 Int (cast-from-Int-to-Int var891)) ; Statement: $i17 = (int) $s3 
 ; Statement: if $i17 <= 0 goto $z19 = 0 
(assert (not (<= var2867 0))) ; Negate: Cond: $i17 <= 0  
(define-const var190 Bool (ite (= 1 1) true false)) ; Statement: $z19 = 1 
 ; Statement: goto [?= z2 = $z19] 
(assert true) ; Non Conditional
(define-const var3186 Bool var190) ; Statement: z2 = $z19 
(assert true)
(define-const var1744 Int (length/1489591041 var847)) ; Statement: $i4 = virtualinvoke r1.<com.mysql.cj.util.LazyString: int length()>() 
 ; Statement: if $i4 <= 0 goto $z20 = 0 
(assert (<= var1744 0)) ; Cond: $i4 <= 0 
(define-const var652 Bool (ite (= 1 0) true false)) ; Statement: $z20 = 0 
(assert true) ; Non Conditional
(define-const var1374 Bool var652) ; Statement: z3 = $z20 
 ; Statement: if z2 == 0 goto $r82 = "binary" 
(assert (= (ite var3186 1 0) 0)) ; Cond: z2 == 0 
(define-const var2695 String "binary") ; Statement: $r82 = "binary" 
(assert true)
(define-const var654 Bool (equalsIgnoreCase/-92311102 var2695 var1888)) ; Statement: $z21 = virtualinvoke $r82.<java.lang.String: boolean equalsIgnoreCase(java.lang.String)>(r2) 
(assert true) ; Non Conditional
 ; Statement: lookupswitch(i5) {     case 0: goto if z0 == 0 goto $r83 = <com.mysql.cj.MysqlType: com.mysql.cj.MysqlType DECIMAL>;     case 1: goto if z0 != 0 goto (branch);     case 2: goto if z0 == 0 goto $r85 = <com.mysql.cj.MysqlType: com.mysql.cj.MysqlType SMALLINT>;     case 3: goto if z0 == 0 goto $r86 = <com.mysql.cj.MysqlType: com.mysql.cj.MysqlType INT>;     case 4: goto if z0 == 0 goto $r87 = <com.mysql.cj.MysqlType: com.mysql.cj.MysqlType FLOAT>;     case 5: goto if z0 == 0 goto $r88 = <com.mysql.cj.MysqlType: com.mysql.cj.MysqlType DOUBLE>;     case 6: goto $r69 = <com.mysql.cj.MysqlType: com.mysql.cj.MysqlType NULL>;     case 7: goto $r68 = <com.mysql.cj.MysqlType: com.mysql.cj.MysqlType TIMESTAMP>;     case 8: goto if z0 == 0 goto $r89 = <com.mysql.cj.MysqlType: com.mysql.cj.MysqlType BIGINT>;     case 9: goto if z0 == 0 goto $r90 = <com.mysql.cj.MysqlType: com.mysql.cj.MysqlType MEDIUMINT>;     case 10: goto $r67 = <com.mysql.cj.MysqlType: com.mysql.cj.MysqlType DATE>;     case 11: goto $r66 = <com.mysql.cj.MysqlType: com.mysql.cj.MysqlType TIME>;     case 12: goto $r65 = <com.mysql.cj.MysqlType: com.mysql.cj.MysqlType DATETIME>;     case 13: goto $r64 = <com.mysql.cj.MysqlType: com.mysql.cj.MysqlType YEAR>;     case 15: goto if $z21 == 0 goto $r58 = <com.mysql.cj.MysqlType: com.mysql.cj.MysqlType VARCHAR>;     case 16: goto $r57 = <com.mysql.cj.MysqlType: com.mysql.cj.MysqlType BIT>;     case 242: goto $r56 = <com.mysql.cj.MysqlType: com.mysql.cj.MysqlType VECTOR>;     case 245: goto $r55 = <com.mysql.cj.MysqlType: com.mysql.cj.MysqlType JSON>;     case 246: goto if z0 == 0 goto $r83 = <com.mysql.cj.MysqlType: com.mysql.cj.MysqlType DECIMAL>;     case 247: goto $r54 = <com.mysql.cj.MysqlType: com.mysql.cj.MysqlType ENUM>;     case 248: goto $r53 = <com.mysql.cj.MysqlType: com.mysql.cj.MysqlType SET>;     case 249: goto if z2 == 0 goto $r91 = <com.mysql.cj.MysqlType: com.mysql.cj.MysqlType TINYTEXT>;     case 250: goto if z2 == 0 goto $r92 = <com.mysql.cj.MysqlType: com.mysql.cj.MysqlType MEDIUMTEXT>;     case 251: goto if z2 == 0 goto $r93 = <com.mysql.cj.MysqlType: com.mysql.cj.MysqlType LONGTEXT>;     case 252: goto $r11 = <com.mysql.cj.MysqlType: com.mysql.cj.MysqlType TINYBLOB>;     case 253: goto if $z21 == 0 goto $r58 = <com.mysql.cj.MysqlType: com.mysql.cj.MysqlType VARCHAR>;     case 254: goto if $z21 == 0 goto $r4 = <com.mysql.cj.MysqlType: com.mysql.cj.MysqlType CHAR>;     case 255: goto $r3 = <com.mysql.cj.MysqlType: com.mysql.cj.MysqlType GEOMETRY>;     default: goto $r80 = <com.mysql.cj.MysqlType: com.mysql.cj.MysqlType UNKNOWN>; } 
(assert (and (= var1014 7) (and (not (= var1014 6)) (and (not (= var1014 5)) (and (not (= var1014 4)) (and (not (= var1014 3)) (and (not (= var1014 2)) (and (not (= var1014 1)) (and (not (= var1014 0)) true))))))))) ; Intersect: Cond: i5 == 7  and Intersect: Negate: Cond: i5 == 6   and Intersect: Negate: Cond: i5 == 5   and Intersect: Negate: Cond: i5 == 4   and Intersect: Negate: Cond: i5 == 3   and Intersect: Negate: Cond: i5 == 2   and Intersect: Negate: Cond: i5 == 1   and Intersect: Negate: Cond: i5 == 0   and Non Conditional        
(define-const var3079 var752 var752-TIMESTAMP) ; Statement: $r68 = <com.mysql.cj.MysqlType: com.mysql.cj.MysqlType TIMESTAMP> 
 ; Statement: return $r68 
(check-sat)
(get-model)
(get-unsat-core)
; {cast-from-Int-to-Int=([short], int), length/1489591041=([com.mysql.cj.util.LazyString], int), equalsIgnoreCase/-92311102=([java.lang.String, java.lang.String], boolean)}
; {var3472=com.mysql.cj.conf.PropertySet, var2687=r5, var1014=i5, var1529=s0, var2067=l6, var289=com.mysql.cj.util.LazyString, var847=r1, var187=r0, var3676=i13, var1888=r2, var982=null_type, var3270=$s1, var1838=$i16, var3025=$z17, var3575=z0, var1270=$i2, var3599=$z18, var384=z1, var891=$s3, var2867=$i17, var190=$z19, var3186=z2, var1744=$i4, var652=$z20, var1374=z3, var2695=$r82, var654=$z21, var752=com.mysql.cj.MysqlType, var3079=$r68}
; {com.mysql.cj.conf.PropertySet=var3472, r5=var2687, i5=var1014, s0=var1529, l6=var2067, com.mysql.cj.util.LazyString=var289, r1=var847, r0=var187, i13=var3676, r2=var1888, null_type=var982, $s1=var3270, $i16=var1838, $z17=var3025, z0=var3575, $i2=var1270, $z18=var3599, z1=var384, $s3=var891, $i17=var2867, $z19=var190, z2=var3186, $i4=var1744, $z20=var652, z3=var1374, $r82=var2695, $z21=var654, com.mysql.cj.MysqlType=var752, $r68=var3079}
;seq <java.lang.String: boolean equalsIgnoreCase(java.lang.String)>
;cnt {"<java.lang.String: boolean equalsIgnoreCase(java.lang.String)>": 1}
;stmts r5 := @parameter0: com.mysql.cj.conf.PropertySet;	i5 := @parameter1: int;	s0 := @parameter2: short;	l6 := @parameter3: long;	r1 := @parameter4: com.mysql.cj.util.LazyString;	r0 := @parameter5: com.mysql.cj.util.LazyString;	i13 := @parameter6: int;	r2 := @parameter7: java.lang.String;	$s1 = s0 & 32;	$i16 = (int) $s1;	if $i16 <= 0 goto $z17 = 0;	$z17 = 0;	z0 = $z17;	$i2 = virtualinvoke r0.<com.mysql.cj.util.LazyString: int length()>();	if $i2 != 0 goto $z18 = 0;	$z18 = 0;	z1 = $z18;	$s3 = s0 & 128;	$i17 = (int) $s3;	if $i17 <= 0 goto $z19 = 0;	$z19 = 1;	goto [?= z2 = $z19];	z2 = $z19;	$i4 = virtualinvoke r1.<com.mysql.cj.util.LazyString: int length()>();	if $i4 <= 0 goto $z20 = 0;	$z20 = 0;	z3 = $z20;	if z2 == 0 goto $r82 = "binary";	$r82 = "binary";	$z21 = virtualinvoke $r82.<java.lang.String: boolean equalsIgnoreCase(java.lang.String)>(r2);	lookupswitch(i5) {     case 0: goto if z0 == 0 goto $r83 = <com.mysql.cj.MysqlType: com.mysql.cj.MysqlType DECIMAL>;     case 1: goto if z0 != 0 goto (branch);     case 2: goto if z0 == 0 goto $r85 = <com.mysql.cj.MysqlType: com.mysql.cj.MysqlType SMALLINT>;     case 3: goto if z0 == 0 goto $r86 = <com.mysql.cj.MysqlType: com.mysql.cj.MysqlType INT>;     case 4: goto if z0 == 0 goto $r87 = <com.mysql.cj.MysqlType: com.mysql.cj.MysqlType FLOAT>;     case 5: goto if z0 == 0 goto $r88 = <com.mysql.cj.MysqlType: com.mysql.cj.MysqlType DOUBLE>;     case 6: goto $r69 = <com.mysql.cj.MysqlType: com.mysql.cj.MysqlType NULL>;     case 7: goto $r68 = <com.mysql.cj.MysqlType: com.mysql.cj.MysqlType TIMESTAMP>;     case 8: goto if z0 == 0 goto $r89 = <com.mysql.cj.MysqlType: com.mysql.cj.MysqlType BIGINT>;     case 9: goto if z0 == 0 goto $r90 = <com.mysql.cj.MysqlType: com.mysql.cj.MysqlType MEDIUMINT>;     case 10: goto $r67 = <com.mysql.cj.MysqlType: com.mysql.cj.MysqlType DATE>;     case 11: goto $r66 = <com.mysql.cj.MysqlType: com.mysql.cj.MysqlType TIME>;     case 12: goto $r65 = <com.mysql.cj.MysqlType: com.mysql.cj.MysqlType DATETIME>;     case 13: goto $r64 = <com.mysql.cj.MysqlType: com.mysql.cj.MysqlType YEAR>;     case 15: goto if $z21 == 0 goto $r58 = <com.mysql.cj.MysqlType: com.mysql.cj.MysqlType VARCHAR>;     case 16: goto $r57 = <com.mysql.cj.MysqlType: com.mysql.cj.MysqlType BIT>;     case 242: goto $r56 = <com.mysql.cj.MysqlType: com.mysql.cj.MysqlType VECTOR>;     case 245: goto $r55 = <com.mysql.cj.MysqlType: com.mysql.cj.MysqlType JSON>;     case 246: goto if z0 == 0 goto $r83 = <com.mysql.cj.MysqlType: com.mysql.cj.MysqlType DECIMAL>;     case 247: goto $r54 = <com.mysql.cj.MysqlType: com.mysql.cj.MysqlType ENUM>;     case 248: goto $r53 = <com.mysql.cj.MysqlType: com.mysql.cj.MysqlType SET>;     case 249: goto if z2 == 0 goto $r91 = <com.mysql.cj.MysqlType: com.mysql.cj.MysqlType TINYTEXT>;     case 250: goto if z2 == 0 goto $r92 = <com.mysql.cj.MysqlType: com.mysql.cj.MysqlType MEDIUMTEXT>;     case 251: goto if z2 == 0 goto $r93 = <com.mysql.cj.MysqlType: com.mysql.cj.MysqlType LONGTEXT>;     case 252: goto $r11 = <com.mysql.cj.MysqlType: com.mysql.cj.MysqlType TINYBLOB>;     case 253: goto if $z21 == 0 goto $r58 = <com.mysql.cj.MysqlType: com.mysql.cj.MysqlType VARCHAR>;     case 254: goto if $z21 == 0 goto $r4 = <com.mysql.cj.MysqlType: com.mysql.cj.MysqlType CHAR>;     case 255: goto $r3 = <com.mysql.cj.MysqlType: com.mysql.cj.MysqlType GEOMETRY>;     default: goto $r80 = <com.mysql.cj.MysqlType: com.mysql.cj.MysqlType UNKNOWN>; };	$r68 = <com.mysql.cj.MysqlType: com.mysql.cj.MysqlType TIMESTAMP>;	return $r68
;block_num 12